=== Active Learning Job ===
  Job ID    : 6681031
  Nodes     : 1  Tasks: 10
  Potential : results/potentials/pot.almtp
Wed May 20 21:12:22 EEST 2026
MTPR from results/potentials/pot.almtp, input: data/train.cfg
Selection: loading state from "results/potentials/pot.almtp"
Selection: loaded the following weights:
	energy_weight = 0.000000
	force_weight = 0.000000
	stress_weight = 0.000000
	site_en_weight = 1.000000

Selection: loading state complete.
	add_grade_feature = true
	threshold_break = 0.000000
	threshold_save = 0.000000
	log = stdout
	save_extrapolative_to = results/active_learning/init_grade.cfg
Starting grades evaluation
Sampling: cfg# 1	grade: 1
Sampling: cfg# 2	grade: 1
Sampling: cfg# 3	grade: 1
Sampling: cfg# 4	grade: 1
Sampling: cfg# 5	grade: 1
Sampling: cfg# 6	grade: 1
Sampling: cfg# 7	grade: 1
Sampling: cfg# 8	grade: 1
Sampling: cfg# 9	grade: 1
Sampling: cfg# 10	grade: 1
Sampling: cfg# 11	grade: 1
Sampling: cfg# 12	grade: 1
Sampling: cfg# 13	grade: 1
Sampling: cfg# 14	grade: 1
Sampling: cfg# 15	grade: 1
Sampling: cfg# 16	grade: 1
Sampling: cfg# 17	grade: 1
Sampling: cfg# 18	grade: 1
Sampling: cfg# 19	grade: 1
Sampling: cfg# 20	grade: 1
Sampling: cfg# 21	grade: 1
Sampling: cfg# 22	grade: 1
Sampling: cfg# 23	grade: 1
Sampling: cfg# 24	grade: 0.630578
Sampling: cfg# 25	grade: 1
Sampling: cfg# 26	grade: 1
Sampling: cfg# 27	grade: 1
Sampling: cfg# 28	grade: 1
Sampling: cfg# 29	grade: 1
Sampling: cfg# 30	grade: 1
Sampling: cfg# 31	grade: 1
Sampling: cfg# 32	grade: 1
Sampling: cfg# 33	grade: 1
Sampling: cfg# 34	grade: 1
Sampling: cfg# 35	grade: 1
Sampling: cfg# 36	grade: 1
Sampling: cfg# 37	grade: 0.776174
Sampling: cfg# 38	grade: 1
Sampling: cfg# 39	grade: 1
Sampling: cfg# 40	grade: 1
Sampling: cfg# 41	grade: 0.974517
Sampling: cfg# 42	grade: 1
Sampling: cfg# 43	grade: 1
Sampling: cfg# 44	grade: 1
Sampling: cfg# 45	grade: 1
Sampling: cfg# 46	grade: 1
Sampling: cfg# 47	grade: 1
Grade evaluation complete
LAMMPS (23 Jun 2022 - Update 4)
Lattice spacing in x,y,z = 5.658 5.658 5.658
Created orthogonal box = (0 0 0) to (22.632 22.632 22.632)
  4 by 2 by 4 MPI processor grid
Created 512 atoms
  using lattice units in orthogonal box = (0 0 0) to (22.632 22.632 22.632)
  create_atoms CPU = 0.001 seconds
Wrapper initialization
	abinitio = false
	calculate_efs = true
	check_errors = false
	extrapolation_control = false
	fit = false
	lotf = false
	mlip = true
	select = false
	write_cfgs = false
	write_cfgs:skip = 0
ERROR: MLIP filename is not specified 
       Thrown by function SetUpMLIP,
       source file: /scratch/project_2012355/Paper_3/mlip-3-prune/src/wrapper.cpp,
       line: 57

=== Active Learning ===
  Potential     : results/potentials/pot.almtp
  Training set  : data/train.cfg  (47 configs)
  Temperature   : 300 K  |  MD steps: 10000
  Grade threshold: 2.0  |  Max iterations: 20

Step A — initializing active set (calculate_grade on training set)...
  Calc grade: /scratch/project_2012355/Paper_3/mlip-3-prune/bin/mlp calculate_grade results/potentials/pot.almtp data/train.cfg results/active_learning/init_grade.cfg

============================================================
Active Learning Iteration 1/20
============================================================

Step B — LAMMPS MD with active learning selection...
  LAMMPS: srun -n 32 lmp_mpi -in md.in (cwd=results/active_learning/iter_001)
  Warning: LAMMPS exited 7

Active learning converged: no extrapolative structures found.

Active learning complete.
  Final training set: 47 configs
  Val set           : 0 configs
  Test set          : 0 configs
=== Done ===
Wed May 20 21:12:29 EEST 2026
