8
Lattice="6.048 0.0 0.0 0.0 5.76 0.0 0.0 0.0 5.76" Properties=species:S:1:pos:R:3 pbc="T T T"
Ge       0.00000000       0.00000000       0.00000000
Ge       1.51200000       1.44000000       1.44000000
Ge       0.00000000       2.88000000       2.88000000
Ge       1.51200000       4.32000000       4.32000000
Ge       3.02400000       0.00000000       2.88000000
Ge       4.53600000       1.44000000       4.32000000
Ge       3.02400000       2.88000000       0.00000000
Ge       4.53600000       4.32000000       1.44000000
