8
Lattice="6.048 0.0 0.0 0.0 6.048 0.0 0.0 0.0 6.048" Properties=species:S:1:pos:R:3 pbc="T T T"
Ge       0.00000000       0.00000000       0.00000000
Ge       1.51200000       1.51200000       1.51200000
Ge       0.00000000       3.02400000       3.02400000
Ge       1.51200000       4.53600000       4.53600000
Ge       3.02400000       0.00000000       3.02400000
Ge       4.53600000       1.51200000       4.53600000
Ge       3.02400000       3.02400000       0.00000000
Ge       4.53600000       4.53600000       1.51200000
